<?xml version="1.0" encoding="UTF-8"?>
<instance>
  <presentation name="LotDevelopment" maxConstraintArity="2" format="XCSP 2.0"/>
  <domains nbDomains="1">
    <domain name="D0" nbValues="8">1..8</domain>
  </domains>
  <variables nbVariables="5">
    <variable name="RecreationArea" domain="D0"/>
    <variable name="ApartmentComplex" domain="D0"/>
    <variable name="SingleFamilyHouses" domain="D0"/>
    <variable name="Cemetery" domain="D0"/>
    <variable name="Dumpsite" domain="D0"/>
  </variables>
  <relations nbRelations="5">
    <relation name="slopes" arity="1" nbTuples="4" semantics="conflicts">3 4 7 8</relation>
    <relation name="highway" arity="1" nbTuples="2" semantics="conflicts">1 2</relation>
    <relation name="nearLake" arity="1" nbTuples="3" semantics="supports">2 3 4</relation>
    <relation name="notNearLake" arity="1" nbTuples="3" semantics="conflicts">2 3 4</relation>
    <relation name="near" arity="2" nbTuples="8" semantics="supports">2 3|3 2|3 4|4 3|6 7|7 6|7 8|8 7</relation>
    <relation name="poorSoil" arity="1" nbTuples="2" semantics="conflicts">3 4</relation>
    <relation name="notVisible" arity="2" nbTuples="8" semantics="conflicts">2 3|3 2|3 4|4 3|6 7|7 6|7 8|8 7</relation>
    <relation name="mutex" arity="2" nbTuples="8" semantics="conflicts">1 1|2 2|3 3|4 4|5 5|6 6|7 7|8 8</relation>
  </relations>
  <constraints nbConstraints="15">
    <constraint name="C1" arity="1" scope="ApartmentComplex" reference="slopes"/>
    <constraint name="C2" arity="1" scope="SingleFamilyHouses" reference="slopes"/>
    <constraint name="C3" arity="1" scope="Cemetery" reference="slopes"/>
    <constraint name="C4" arity="1" scope="Dumpsite" reference="slopes"/>
    <constraint name="C5" arity="1" scope="ApartmentComplex" reference="poorSoil"> </constraint>
    <constraint name="C6" arity="1" scope="SingleFamilyHouses" reference="poorSoil"> </constraint>
    <constraint name="C7" arity="1" scope="ApartmentComplex" reference="highway"> </constraint>
    <constraint name="C8" arity="1" scope="SingleFamilyHouses" reference="highway"> </constraint>
    <constraint name="C9" arity="1" scope="RecreationArea" reference="highway"> </constraint>
    <constraint name="C10" arity="1" scope="Dumpsite" reference="notNearLake"> </constraint>
    <constraint name="C11" arity="1" scope="RecreationArea" reference="nearLake"> </constraint>
    <constraint name="C12" arity="2" scope="RecreationArea Dumpsite" reference="notVisible"> </constraint>
    <constraint name="C13" arity="2" scope="ApartmentComplex Dumpsite" reference="notVisible"> </constraint>
    <constraint name="C14" arity="2" scope="SingleFamilyHouses Dumpsite" reference="notVisible"> </constraint>
    <constraint name="C15" arity="2" scope="Cemetery Dumpsite" reference="notVisible"> </constraint>
    <constraint name="C16" arity="2" scope="RecreationArea Dumpsite" reference="mutex"/>
    <constraint name="C17" arity="2" scope="RecreationArea Cemetery" reference="mutex"/>
    <constraint name="C18" arity="2" scope="RecreationArea SingleFamilyHouses" reference="mutex"/>
    <constraint name="C19" arity="2" scope="RecreationArea ApartmentComplex" reference="mutex"/>
    <constraint name="C20" arity="2" scope="ApartmentComplex Cemetery" reference="mutex"/>
    <constraint name="C21" arity="2" scope="ApartmentComplex SingleFamilyHouses" reference="mutex"/>
    <constraint name="C22" arity="2" scope="ApartmentComplex Dumpsite" reference="mutex"/>
    <constraint name="C23" arity="2" scope="SingleFamilyHouses Dumpsite" reference="mutex"/>
    <constraint name="C24" arity="2" scope="SingleFamilyHouses Cemetery" reference="mutex"/>
    <constraint name="C25" arity="2" scope="Dumpsite Cemetery" reference="mutex"/>
  </constraints>
</instance>